# CIF file
data_findsym-output
_audit_creation_method FINDSYM

_chemical_name_mineral 'Carbonyl Sulphide'
_chemical_formula_sum 'C O S'

loop_
_publ_author_name
 'J. S. W. Overell'
 'G. S. Pawley'
 'B. M. Powell'
_journal_name_full_name
;
 Acta Crystallographica Section B: Structural Science
;
_journal_volume 38
_journal_year 1982
_journal_page_first 1121
_journal_page_last 1123
_publ_Section_title
;
 Powder refinement of carbonyl sulphide
;

_aflow_title 'Carbonyl Sulphide (COS, $F0_{2}$) Structure'
_aflow_proto 'ABC_hR3_160_a_a_a'
_aflow_params 'a,c/a,x_{1},x_{2},x_{3}'
_aflow_params_values '6.1703,0.949908432329,0.0,0.79356,0.25763'
_aflow_Strukturbericht '$F0_{2}$'
_aflow_Pearson 'hR3'

_symmetry_space_group_name_H-M "R 3 m (hexagonal axes)"
_symmetry_Int_Tables_number 160
 
_cell_length_a    6.17030
_cell_length_b    6.17030
_cell_length_c    5.86122
_cell_angle_alpha 90.00000
_cell_angle_beta  90.00000
_cell_angle_gamma 120.00000
 
loop_
_space_group_symop_id
_space_group_symop_operation_xyz
1 x,y,z
2 -y,x-y,z
3 -x+y,-x,z
4 -y,-x,z
5 x,x-y,z
6 -x+y,y,z
7 x+1/3,y+2/3,z+2/3
8 -y+1/3,x-y+2/3,z+2/3
9 -x+y+1/3,-x+2/3,z+2/3
10 -y+1/3,-x+2/3,z+2/3
11 x+1/3,x-y+2/3,z+2/3
12 -x+y+1/3,y+2/3,z+2/3
13 x+2/3,y+1/3,z+1/3
14 -y+2/3,x-y+1/3,z+1/3
15 -x+y+2/3,-x+1/3,z+1/3
16 -y+2/3,-x+1/3,z+1/3
17 x+2/3,x-y+1/3,z+1/3
18 -x+y+2/3,y+1/3,z+1/3
 
loop_
_atom_site_label
_atom_site_type_symbol
_atom_site_symmetry_multiplicity
_atom_site_Wyckoff_label
_atom_site_fract_x
_atom_site_fract_y
_atom_site_fract_z
_atom_site_occupancy
C1 C   3 a 0.00000 0.00000 0.00000 1.00000
O1 O   3 a 0.00000 0.00000 0.79356 1.00000
S1 S   3 a 0.00000 0.00000 0.25763 1.00000
